sat-competition-2018/orders/benchmarks-chi/cms-scheel-sha3-order-w1-rc-o1.cnf
c This is a CNF SAT formula in the DIMACS CNF format,
c produced with the bc2cnf translator by Tommi Junttila;
c see http://users.ics.aalto.fi/tjunttil/circuits/index.html
c cidentity <-> 1
c h1out24 <-> 28
c h1r0c24 <-> 28
c h1out23 <-> 31
c h1r0c23 <-> 31
c h1out22 <-> 34
c h1r0c22 <-> 34
c h1in24 <-> 36
c h1out21 <-> 38
c h1r0c21 <-> 38
c h1in23 <-> 40
c h1out20 <-> 42
c h1r0c20 <-> 42
c h1in22 <-> 44
c h1in21 <-> 46
c h1in20 <-> 47
c h1out19 <-> 48
c h1r0c19 <-> 48
c h1out18 <-> 51
c h1r0c18 <-> 51
c h1out17 <-> 54
c h1r0c17 <-> 54
c h1in19 <-> 56
c h1out16 <-> 58
c h1r0c16 <-> 58
c h1in18 <-> 60
c h1out15 <-> 62
c h1r0c15 <-> 62
c h1in17 <-> 64
c h1in16 <-> 66
c h1in15 <-> 67
c h1out14 <-> 68
c h1r0c14 <-> 68
c h1out13 <-> 71
c h1r0c13 <-> 71
c h1out12 <-> 74
c h1r0c12 <-> 74
c h1in14 <-> 76
c h1out11 <-> 78
c h1r0c11 <-> 78
c h1in13 <-> 80
c h1out10 <-> 82
c h1r0c10 <-> 82
c h1in12 <-> 84
c h1in11 <-> 86
c h1in10 <-> 87
c h1out9 <-> 88
c h1r0c9 <-> 88
c h1out8 <-> 91
c h1r0c8 <-> 91
c h1out7 <-> 94
c h1r0c7 <-> 94
c h1in9 <-> 96
c h1out6 <-> 98
c h1r0c6 <-> 98
c h1in8 <-> 100
c h1out5 <-> 102
c h1r0c5 <-> 102
c h1in7 <-> 104
c h1in6 <-> 106
c h1in5 <-> 107
c h1out4 <-> 108
c h1r0c4 <-> 108
c h1out3 <-> 111
c h1r0c3 <-> 111
c h1out2 <-> 114
c h1r0c2 <-> 114
c h1in4 <-> 116
c h1out1 <-> 118
c h1r0c1 <-> 118
c h1in3 <-> 120
c h1out0 <-> 122
c h1r0c0 <-> 122
c h1in2 <-> 124
c h1in1 <-> 126
c h1in0 <-> 127
p cnf 127 353
1 0
-2 3 0
-2 4 0
-2 5 0
-2 6 0
-2 7 0
-2 8 0
-2 9 0
-2 10 0
-2 11 0
-2 12 0
-2 13 0
-2 14 0
-2 15 0
-2 16 0
-2 17 0
-2 18 0
-2 19 0
-2 20 0
-2 21 0
-2 22 0
-2 23 0
-2 24 0
-2 25 0
-2 26 0
-2 27 0
2 -27 -26 -25 -24 -23 -22 -21 -20 -19 -18 -17 -16 -15 -14 -13 -12 -11 -10 -9 -8 -7 -6 -5 -4 -3 0
-2 0
3 36 28 0
3 -36 -28 0
-3 36 -28 0
-3 -36 28 0
4 40 31 0
4 -40 -31 0
-4 40 -31 0
-4 -40 31 0
5 44 34 0
5 -44 -34 0
-5 44 -34 0
-5 -44 34 0
6 46 38 0
6 -46 -38 0
-6 46 -38 0
-6 -46 38 0
7 47 42 0
7 -47 -42 0
-7 47 -42 0
-7 -47 42 0
8 56 48 0
8 -56 -48 0
-8 56 -48 0
-8 -56 48 0
9 60 51 0
9 -60 -51 0
-9 60 -51 0
-9 -60 51 0
10 64 54 0
10 -64 -54 0
-10 64 -54 0
-10 -64 54 0
11 66 58 0
11 -66 -58 0
-11 66 -58 0
-11 -66 58 0
12 67 62 0
12 -67 -62 0
-12 67 -62 0
-12 -67 62 0
13 76 68 0
13 -76 -68 0
-13 76 -68 0
-13 -76 68 0
14 80 71 0
14 -80 -71 0
-14 80 -71 0
-14 -80 71 0
15 84 74 0
15 -84 -74 0
-15 84 -74 0
-15 -84 74 0
16 86 78 0
16 -86 -78 0
-16 86 -78 0
-16 -86 78 0
17 87 82 0
17 -87 -82 0
-17 87 -82 0
-17 -87 82 0
18 96 88 0
18 -96 -88 0
-18 96 -88 0
-18 -96 88 0
19 100 91 0
19 -100 -91 0
-19 100 -91 0
-19 -100 91 0
20 104 94 0
20 -104 -94 0
-20 104 -94 0
-20 -104 94 0
21 106 98 0
21 -106 -98 0
-21 106 -98 0
-21 -106 98 0
22 107 102 0
22 -107 -102 0
-22 107 -102 0
-22 -107 102 0
23 116 108 0
23 -116 -108 0
-23 116 -108 0
-23 -116 108 0
24 120 111 0
24 -120 -111 0
-24 120 -111 0
-24 -120 111 0
25 124 114 0
25 -124 -114 0
-25 124 -114 0
-25 -124 114 0
26 126 118 0
26 -126 -118 0
-26 126 -118 0
-26 -126 118 0
27 127 122 0
27 -127 -122 0
-27 127 -122 0
-27 -127 122 0
28 36 -29 0
28 -36 29 0
-28 36 29 0
-28 -36 -29 0
-29 30 0
-29 46 0
29 -46 -30 0
30 47 0
-30 -47 0
31 40 -32 0
31 -40 32 0
-31 40 32 0
-31 -40 -32 0
-32 33 0
-32 47 0
32 -47 -33 0
33 36 0
-33 -36 0
34 44 -35 0
34 -44 35 0
-34 44 35 0
-34 -44 -35 0
-35 36 0
-35 37 0
35 -37 -36 0
37 40 0
-37 -40 0
38 46 -39 0
38 -46 39 0
-38 46 39 0
-38 -46 -39 0
-39 40 0
-39 41 0
39 -41 -40 0
41 44 0
-41 -44 0
42 47 -43 0
42 -47 43 0
-42 47 43 0
-42 -47 -43 0
-43 44 0
-43 45 0
43 -45 -44 0
45 46 0
-45 -46 0
48 56 -49 0
48 -56 49 0
-48 56 49 0
-48 -56 -49 0
-49 50 0
-49 66 0
49 -66 -50 0
50 67 0
-50 -67 0
51 60 -52 0
51 -60 52 0
-51 60 52 0
-51 -60 -52 0
-52 53 0
-52 67 0
52 -67 -53 0
53 56 0
-53 -56 0
54 64 -55 0
54 -64 55 0
-54 64 55 0
-54 -64 -55 0
-55 56 0
-55 57 0
55 -57 -56 0
57 60 0
-57 -60 0
58 66 -59 0
58 -66 59 0
-58 66 59 0
-58 -66 -59 0
-59 60 0
-59 61 0
59 -61 -60 0
61 64 0
-61 -64 0
62 67 -63 0
62 -67 63 0
-62 67 63 0
-62 -67 -63 0
-63 64 0
-63 65 0
63 -65 -64 0
65 66 0
-65 -66 0
68 76 -69 0
68 -76 69 0
-68 76 69 0
-68 -76 -69 0
-69 70 0
-69 86 0
69 -86 -70 0
70 87 0
-70 -87 0
71 80 -72 0
71 -80 72 0
-71 80 72 0
-71 -80 -72 0
-72 73 0
-72 87 0
72 -87 -73 0
73 76 0
-73 -76 0
74 84 -75 0
74 -84 75 0
-74 84 75 0
-74 -84 -75 0
-75 76 0
-75 77 0
75 -77 -76 0
77 80 0
-77 -80 0
78 86 -79 0
78 -86 79 0
-78 86 79 0
-78 -86 -79 0
-79 80 0
-79 81 0
79 -81 -80 0
81 84 0
-81 -84 0
82 87 -83 0
82 -87 83 0
-82 87 83 0
-82 -87 -83 0
-83 84 0
-83 85 0
83 -85 -84 0
85 86 0
-85 -86 0
88 96 -89 0
88 -96 89 0
-88 96 89 0
-88 -96 -89 0
-89 90 0
-89 106 0
89 -106 -90 0
90 107 0
-90 -107 0
91 100 -92 0
91 -100 92 0
-91 100 92 0
-91 -100 -92 0
-92 93 0
-92 107 0
92 -107 -93 0
93 96 0
-93 -96 0
94 104 -95 0
94 -104 95 0
-94 104 95 0
-94 -104 -95 0
-95 96 0
-95 97 0
95 -97 -96 0
97 100 0
-97 -100 0
98 106 -99 0
98 -106 99 0
-98 106 99 0
-98 -106 -99 0
-99 100 0
-99 101 0
99 -101 -100 0
101 104 0
-101 -104 0
102 107 -103 0
102 -107 103 0
-102 107 103 0
-102 -107 -103 0
-103 104 0
-103 105 0
103 -105 -104 0
105 106 0
-105 -106 0
108 116 -109 0
108 -116 109 0
-108 116 109 0
-108 -116 -109 0
-109 110 0
-109 126 0
109 -126 -110 0
110 127 0
-110 -127 0
111 120 -112 0
111 -120 112 0
-111 120 112 0
-111 -120 -112 0
-112 113 0
-112 127 0
112 -127 -113 0
113 116 0
-113 -116 0
114 124 -115 0
114 -124 115 0
-114 124 115 0
-114 -124 -115 0
-115 116 0
-115 117 0
115 -117 -116 0
117 120 0
-117 -120 0
118 126 -119 0
118 -126 119 0
-118 126 119 0
-118 -126 -119 0
-119 120 0
-119 121 0
119 -121 -120 0
121 124 0
-121 -124 0
122 127 -123 0
122 -127 123 0
-122 127 123 0
-122 -127 -123 0
-123 124 0
-123 125 0
123 -125 -124 0
125 126 0
-125 -126 0
